This is Ipopt version 3.10.0, running with linear solver ma27.

Number of nonzeros in equality constraint Jacobian...:        0
Number of nonzeros in inequality constraint Jacobian.:       48
Number of nonzeros in Lagrangian Hessian.............:        0

Total number of variables............................:        6
                     variables with only lower bounds:        3
                variables with lower and upper bounds:        3
                     variables with only upper bounds:        0
Total number of equality constraints.................:        0
Total number of inequality constraints...............:        8
        inequality constraints with only lower bounds:        0
   inequality constraints with lower and upper bounds:        0
        inequality constraints with only upper bounds:        8

iter    objective    inf_pr   inf_du lg(mu)  ||d||  lg(rg) alpha_du alpha_pr  ls
   0  3.8284600e+00 3.00e+00 1.25e+00   0.0 0.00e+00    -  0.00e+00 0.00e+00   0
   1  5.3535998e+00 1.01e+00 4.76e+00  -0.3 2.38e+00    -  6.02e-01 1.00e+00f  1
   2  6.3190933e+00 3.33e-01 1.95e+00  -0.3 1.16e+00    -  8.25e-01 9.60e-01h  1
   3  6.6453274e+00 1.82e-01 1.74e+00  -0.9 3.85e-01    -  9.48e-01 6.44e-01h  1
   4  6.1117887e+00 8.37e-02 7.64e+01  -1.5 1.09e+00    -  1.00e+00 7.26e-01h  1
   5  5.7635911e+00 1.16e-01 6.59e+01  -2.2 2.89e-01    -  1.00e+00 4.22e-01h  1
   6  5.8840803e+00 1.78e-02 1.03e+01  -1.5 3.33e-01    -  1.00e+00 1.00e+00h  1
   7  5.7014015e+00 5.20e-01 2.07e+01  -2.4 2.75e-01    -  1.00e+00 6.09e-01h  1
   8  5.6974782e+00 1.32e-01 2.56e+00  -2.4 2.82e-02    -  1.00e+00 1.00e+00h  1
   9  5.6781439e+00 1.43e-01 1.98e+00  -3.2 1.53e-02    -  1.00e+00 1.00e+00h  1
iter    objective    inf_pr   inf_du lg(mu)  ||d||  lg(rg) alpha_du alpha_pr  ls
  10  5.6686634e+00 1.99e-01 7.61e+00  -3.3 6.69e-03    -  1.00e+00 1.00e+00h  1
  11  5.6895018e+00 1.85e-01 1.91e+01  -2.4 1.12e-02    -  1.00e+00 1.00e+00h  1
  12  5.6898504e+00 1.50e-01 1.13e+00  -2.5 8.15e-03    -  1.00e+00 1.00e+00h  1
  13  5.6891145e+00 9.36e-02 1.66e+00  -2.5 3.19e-03    -  1.00e+00 1.00e+00h  1
  14  5.6891766e+00 2.84e-02 8.23e+00  -3.4 7.73e-03    -  1.00e+00 5.00e-01h  2
  15  5.6970592e+00 1.94e-02 1.65e+01  -3.8 1.54e-02    -  1.00e+00 5.00e-01h  2
  16  5.6977144e+00 1.96e-02 1.44e+01  -3.6 3.15e-02    -  1.00e+00 1.56e-02h  7
